p cnf 50 650
1 -50 -48 0
1 -50 -44 0
1 -50 -32 0
1 -50 -28 0
1 -50 -27 0
1 -50 -25 0
1 -50 -17 0
1 -50 -1 0
1 -50 21 0
1 -50 34 0
1 -50 38 0
1 -50 40 0
1 -50 48 0
1 -49 -35 0
1 -49 -29 0
1 -49 -26 0
1 -49 -22 0
1 -49 -21 0
1 -49 -11 0
1 -49 -3 0
1 -49 1 0
1 -49 6 0
1 -49 8 0
1 -49 17 0
1 -49 23 0
1 -49 25 0
1 -48 -45 0
1 -48 -23 0
1 -48 -14 0
1 -48 -5 0
1 -48 1 0
1 -48 4 0
1 -48 5 0
1 -48 9 0
1 -48 21 0
1 -48 28 0
1 -48 34 0
1 -48 50 0
1 -47 -42 0
1 -47 -31 0
1 -47 -30 0
1 -47 -10 0
1 -47 -8 0
1 -47 -4 0
1 -47 14 0
1 -47 24 0
1 -47 25 0
1 -47 27 0
1 -47 34 0
1 -47 41 0
1 -47 43 0
1 -46 -36 0
1 -46 -30 0
1 -46 -28 0
1 -46 -11 0
1 -46 -2 0
1 -46 7 0
1 -46 10 0
1 -46 11 0
1 -46 33 0
1 -46 39 0
1 -46 40 0
1 -46 43 0
1 -46 47 0
1 -45 -31 0
1 -45 -19 0
1 -45 -1 0
1 -45 1 0
1 -45 6 0
1 -45 8 0
1 -45 12 0
1 -45 14 0
1 -45 18 0
1 -45 32 0
1 -45 39 0
1 -45 46 0
1 -44 -40 0
1 -44 -30 0
1 -44 -15 0
1 -44 -6 0
1 -44 12 0
1 -44 18 0
1 -44 24 0
1 -44 27 0
1 -44 35 0
1 -44 38 0
1 -44 42 0
1 -44 45 0
1 -43 -35 0
1 -43 -17 0
1 -43 5 0
1 -43 13 0
1 -43 15 0
1 -43 18 0
1 -43 19 0
1 -43 20 0
1 -43 23 0
1 -43 28 0
1 -43 31 0
1 -43 36 0
1 -43 44 0
1 -42 -41 0
1 -42 -40 0
1 -42 -37 0
1 -42 -21 0
1 -42 -18 0
1 -42 3 0
1 -42 25 0
1 -42 26 0
1 -42 32 0
1 -42 35 0
1 -42 40 0
1 -42 44 0
1 -41 -40 0
1 -41 -39 0
1 -41 -35 0
1 -41 -29 0
1 -41 -22 0
1 -41 -21 0
1 -41 -15 0
1 -41 -14 0
1 -41 -11 0
1 -41 -9 0
1 -41 16 0
1 -41 37 0
1 -40 -39 0
1 -40 8 0
1 -40 11 0
1 -40 19 0
1 -40 20 0
1 -40 26 0
1 -40 28 0
1 -40 31 0
1 -40 35 0
1 -40 41 0
1 -39 -37 0
1 -39 -33 0
1 -39 -29 0
1 -39 -26 0
1 -39 -16 0
1 -39 -15 0
1 -39 7 0
1 -39 9 0
1 -39 14 0
1 -39 23 0
1 -39 33 0
1 -38 -35 0
1 -38 -30 0
1 -38 -28 0
1 -38 -20 0
1 -38 -17 0
1 -38 -12 0
1 -38 8 0
1 -38 10 0
1 -38 12 0
1 -38 24 0
1 -38 31 0
1 -38 42 0
1 -38 50 0
1 -37 -13 0
1 -37 -12 0
1 -37 -10 0
1 -37 -6 0
1 -37 -5 0
1 -37 1 0
1 -37 7 0
1 -37 14 0
1 -37 15 0
1 -37 27 0
1 -37 39 0
1 -36 -17 0
1 -36 -14 0
1 -36 -7 0
1 -36 -5 0
1 -36 7 0
1 -36 15 0
1 -36 16 0
1 -36 32 0
1 -36 41 0
1 -36 45 0
1 -36 48 0
1 -36 50 0
1 -35 -34 0
1 -35 -32 0
1 -35 -16 0
1 -35 4 0
1 -35 12 0
1 -35 21 0
1 -35 24 0
1 -35 29 0
1 -35 40 0
1 -34 -29 0
1 -34 -23 0
1 -34 -21 0
1 -34 3 0
1 -34 8 0
1 -34 19 0
1 -34 22 0
1 -34 25 0
1 -34 26 0
1 -34 35 0
1 -34 37 0
1 -34 42 0
1 -33 -26 0
1 -33 -13 0
1 -33 -12 0
1 -33 -5 0
1 -33 -4 0
1 -33 20 0
1 -33 24 0
1 -33 27 0
1 -33 30 0
1 -33 32 0
1 -33 35 0
1 -33 38 0
1 -32 -29 0
1 -32 -24 0
1 -32 -23 0
1 -32 -11 0
1 -32 -7 0
1 -32 3 0
1 -32 16 0
1 -32 30 0
1 -32 36 0
1 -32 42 0
1 -32 44 0
1 -31 -23 0
1 -31 -17 0
1 -31 -5 0
1 -31 -3 0
1 -31 -1 0
1 -31 9 0
1 -31 11 0
1 -31 20 0
1 -31 34 0
1 -31 35 0
1 -31 37 0
1 -30 -28 0
1 -30 -24 0
1 -30 -13 0
1 -30 -9 0
1 -30 3 0
1 -30 24 0
1 -30 36 0
1 -30 40 0
1 -30 46 0
1 -29 -27 0
1 -29 13 0
1 -29 28 0
1 -29 32 0
1 -29 34 0
1 -29 42 0
1 -29 44 0
1 -29 49 0
1 -28 -26 0
1 -28 -13 0
1 -28 -10 0
1 -28 -7 0
1 -28 -3 0
1 -28 22 0
1 -28 26 0
1 -28 41 0
1 -28 47 0
1 -27 -26 0
1 -27 -25 0
1 -27 -22 0
1 -27 -20 0
1 -27 -1 0
1 -27 5 0
1 -27 9 0
1 -27 42 0
1 -27 43 0
1 -27 46 0
1 -27 47 0
1 -26 -16 0
1 -26 -10 0
1 -26 -7 0
1 -26 -1 0
1 -26 2 0
1 -26 18 0
1 -26 39 0
1 -26 45 0
1 -25 -24 0
1 -25 -20 0
1 -25 -17 0
1 -25 -14 0
1 -25 -12 0
1 -25 -5 0
1 -25 -3 0
1 -25 -2 0
1 -25 5 0
1 -25 35 0
1 -25 48 0
1 -24 -22 0
1 -24 -18 0
1 -24 -13 0
1 -24 -2 0
1 -24 1 0
1 -24 12 0
1 -24 20 0
1 -24 36 0
1 -24 41 0
1 -24 44 0
1 -23 -21 0
1 -23 -13 0
1 -23 -9 0
1 -23 -1 0
1 -23 10 0
1 -23 17 0
1 -23 27 0
1 -23 31 0
1 -23 34 0
1 -22 -21 0
1 -22 -8 0
1 -22 -5 0
1 -22 -4 0
1 -22 18 0
1 -22 27 0
1 -22 38 0
1 -22 44 0
1 -22 45 0
1 -21 -14 0
1 -21 -1 0
1 -21 1 0
1 -21 10 0
1 -21 29 0
1 -21 42 0
1 -21 44 0
1 -20 -12 0
1 -20 -10 0
1 -20 -8 0
1 -20 2 0
1 -20 5 0
1 -20 12 0
1 -20 15 0
1 -20 25 0
1 -20 27 0
1 -20 49 0
1 -19 -18 0
1 -19 -8 0
1 -19 -2 0
1 -19 13 0
1 -19 16 0
1 -19 25 0
1 -19 33 0
1 -19 42 0
1 -19 43 0
1 -19 45 0
1 -19 46 0
1 -19 47 0
1 -18 -9 0
1 -18 2 0
1 -18 7 0
1 -18 8 0
1 -18 11 0
1 -18 12 0
1 -18 17 0
1 -18 32 0
1 -18 37 0
1 -18 49 0
1 -17 -14 0
1 -17 -1 0
1 -17 11 0
1 -17 16 0
1 -17 19 0
1 -17 24 0
1 -17 48 0
1 -16 -14 0
1 -16 -6 0
1 -16 1 0
1 -16 5 0
1 -16 10 0
1 -16 19 0
1 -16 21 0
1 -16 28 0
1 -16 41 0
1 -16 47 0
1 -15 -13 0
1 -15 -12 0
1 -15 -4 0
1 -15 -1 0
1 -15 1 0
1 -15 9 0
1 -15 16 0
1 -15 26 0
1 -15 29 0
1 -15 32 0
1 -14 -12 0
1 -14 -6 0
1 -14 18 0
1 -14 20 0
1 -14 37 0
1 -14 48 0
1 -13 -9 0
1 -13 -1 0
1 -13 7 0
1 -13 9 0
1 -13 31 0
1 -13 36 0
1 -12 -7 0
1 -12 -4 0
1 -12 14 0
1 -12 20 0
1 -12 26 0
1 -12 34 0
1 -11 -9 0
1 -11 -6 0
1 -11 10 0
1 -11 15 0
1 -11 28 0
1 -11 33 0
1 -11 38 0
1 -11 39 0
1 -11 49 0
1 -10 3 0
1 -10 4 0
1 -10 7 0
1 -10 11 0
1 -10 12 0
1 -10 15 0
1 -10 29 0
1 -10 36 0
1 -9 5 0
1 -9 13 0
1 -9 15 0
1 -9 26 0
1 -9 29 0
1 -9 47 0
1 -9 50 0
1 -8 -2 0
1 -8 -1 0
1 -8 14 0
1 -8 25 0
1 -8 26 0
1 -8 30 0
1 -8 33 0
1 -8 44 0
1 -8 49 0
1 -7 2 0
1 -7 9 0
1 -7 14 0
1 -7 15 0
1 -7 17 0
1 -7 30 0
1 -7 36 0
1 -7 45 0
1 -6 10 0
1 -6 11 0
1 -6 15 0
1 -6 22 0
1 -6 25 0
1 -6 38 0
1 -6 41 0
1 -6 50 0
1 -5 2 0
1 -5 9 0
1 -5 13 0
1 -5 17 0
1 -5 19 0
1 -5 32 0
1 -4 -2 0
1 -4 12 0
1 -4 13 0
1 -4 18 0
1 -4 30 0
1 -4 34 0
1 -4 35 0
1 -4 38 0
1 -3 6 0
1 -3 10 0
1 -3 14 0
1 -3 21 0
1 -3 30 0
1 -3 31 0
1 -3 41 0
1 -3 48 0
1 -3 50 0
1 -2 5 0
1 -2 10 0
1 -2 11 0
1 -2 18 0
1 -2 21 0
1 -2 43 0
1 -2 44 0
1 -1 25 0
1 -1 45 0
1 1 15 0
1 1 23 0
1 1 40 0
1 1 46 0
1 1 47 0
1 2 3 0
1 2 7 0
1 2 20 0
1 2 22 0
1 2 23 0
1 2 29 0
1 2 34 0
1 2 40 0
1 3 4 0
1 3 8 0
1 3 13 0
1 3 14 0
1 3 24 0
1 3 41 0
1 3 47 0
1 4 6 0
1 4 9 0
1 4 15 0
1 4 17 0
1 4 34 0
1 4 47 0
1 4 48 0
1 4 49 0
1 4 50 0
1 5 8 0
1 5 10 0
1 5 11 0
1 5 21 0
1 5 35 0
1 6 8 0
1 6 13 0
1 6 17 0
1 6 18 0
1 6 22 0
1 6 24 0
1 6 31 0
1 6 39 0
1 6 49 0
1 7 23 0
1 7 29 0
1 7 36 0
1 7 39 0
1 7 46 0
1 8 18 0
1 8 19 0
1 8 35 0
1 8 40 0
1 9 28 0
1 9 33 0
1 9 36 0
1 9 37 0
1 10 13 0
1 10 15 0
1 10 48 0
1 11 12 0
1 11 28 0
1 11 32 0
1 11 50 0
1 12 30 0
1 12 31 0
1 12 40 0
1 13 18 0
1 13 23 0
1 13 27 0
1 13 47 0
1 14 21 0
1 14 22 0
1 14 27 0
1 14 50 0
1 15 30 0
1 16 21 0
1 16 23 0
1 16 30 0
1 16 37 0
1 16 43 0
1 16 47 0
1 16 50 0
1 17 18 0
1 17 23 0
1 17 29 0
1 17 33 0
1 17 39 0
1 17 40 0
1 18 43 0
1 19 20 0
1 19 29 0
1 19 31 0
1 19 32 0
1 19 35 0
1 19 39 0
1 20 24 0
1 20 29 0
1 20 44 0
1 20 46 0
1 21 23 0
1 21 24 0
1 21 29 0
1 21 45 0
1 22 26 0
1 22 27 0
1 22 30 0
1 22 33 0
1 22 35 0
1 22 40 0
1 22 41 0
1 23 25 0
1 23 40 0
1 23 41 0
1 24 27 0
1 24 35 0
1 25 38 0
1 25 43 0
1 25 49 0
1 26 36 0
1 26 37 0
1 26 45 0
1 26 49 0
1 27 31 0
1 27 49 0
1 28 31 0
1 28 36 0
1 28 37 0
1 28 38 0
1 28 39 0
1 29 39 0
1 29 47 0
1 30 38 0
1 30 43 0
1 30 45 0
1 31 42 0
1 31 50 0
1 32 39 0
1 32 42 0
1 32 46 0
1 33 40 0
1 33 43 0
1 33 46 0
1 33 49 0
1 33 50 0
1 34 46 0
1 34 48 0
1 34 49 0
1 36 38 0
1 36 39 0
1 37 42 0
1 37 43 0
1 37 44 0
1 37 48 0
1 38 45 0
1 38 46 0
1 41 43 0
1 41 47 0
1 42 46 0
1 42 48 0
1 43 49 0
1 44 45 0
1 44 46 0
1 45 48 0
1 48 50 0
